








































































































18 23 25 48 65 76 24 
68 64 47 6 40 62 67 59 
11 37 71 3 45 21 42 74 
55 46 44 26 2 72 63 
33 36 4 8 27 30 50 
15 56 16 13 38 34 7 12 
41 19 10 58 39 60 9 70 
49 52 73 57 61 35 28 
32 5 20 43 69 0 53 66 
75 1 54 31 51 17 29 14 22 
